<number of tasks>
50

<cycle time>
1000

<order strength>
0.598


<task times>
1 280
2 525
3 236
4 110
5 558
6 501
7 538
8 281
9 52
10 59
11 399
12 100
13 515
14 126
15 473
16 121
17 318
18 205
19 52
20 477
21 202
22 150
23 160
24 31
25 96
26 125
27 20
28 90
29 80
30 62
31 112
32 591
33 237
34 83
35 93
36 172
37 372
38 44
39 326
40 173
41 318
42 67
43 27
44 158
45 168
46 606
47 180
48 378
49 106
50 112

<precedence relations>
1,4
2,5
2,6
2,7
2,8
3,6
3,7
3,8
4,10
5,9
6,10
6,11
7,10
7,11
8,10
8,11
9,12
10,13
10,14
10,15
10,16
10,17
11,13
11,14
11,15
11,16
11,17
12,18
13,19
13,20
13,21
13,22
14,20
14,21
14,22
15,20
15,21
15,22
16,20
16,21
16,22
17,20
17,21
17,22
18,24
19,23
20,24
20,25
20,26
21,24
21,25
21,26
22,24
22,25
22,26
23,27
24,28
24,29
24,39
24,41
25,30
25,31
25,39
26,31
27,32
28,33
29,34
30,35
31,36
32,39
33,37
34,40
35,41
36,38
36,40
36,42
36,43
36,44
37,46
38,45
38,47
39,49
40,49
41,49
42,49
42,50
43,47
43,49
45,48
46,49
47,50

<end>
